Medium-instances_NetworkFacilityLocation/2023-03-27_20hr-25min-09sec/Nodes20_Arcs35_LocNodes15/Formulation-2Instance-2.lp
\ Model LocPrice
\ LP format - for model browsing. Use MPS format to capture full model detail.
Maximize
  - 193 x[1] - 154 x[2] - 192 x[3] - 192 x[4] - 172 x[6] - 168 x[7]
   - 199 x[8] - 197 x[13] - 183 x[14] - 169 x[15] - 160 x[16] - 196 x[17]
   - 163 x[18] - 177 x[19] - 183 x[20] - 4.482843340055625 Q[1]
   - 4.348779429773526 Q[2] - 4.368410424769197 Q[3]
   - 3.927648720166735 Q[4] - 3.443777118328909 Q[6]
   - 4.281880282962621 Q[7] - 3.214178992274573 Q[8]
   - 4.384444549289659 Q[13] - 4.270773599781421 Q[14]
   - 3.753025051175384 Q[15] - 4.597046691612211 Q[16]
   - 3.388050952014089 Q[17] - 3.780917827595443 Q[18]
   - 4.595867772194042 Q[19] - 3.760950741286647 Q[20]
   - 2.771029754273204 f[2,1] - 0.9820494399722935 f[3,2]
   - 2.966583076857058 f[4,3] - 0.5630248207035564 f[5,1]
   - 2.469756054108095 f[6,5] - 0.4717784612521337 f[7,3]
   - 1.215295958583479 f[8,4] - 0.2204199354218327 f[9,6]
   - 2.574116793594052 f[10,3] - 2.486394212929567 f[11,10]
   - 0.4193678956281488 f[12,1] - 1.581319429671248 f[13,4]
   - 0.7744244907489192 f[14,5] - 1.475327100056508 f[15,8]
   - 1.659618017847746 f[16,7] - 0.3187861535962716 f[17,3]
   - 2.593126689303397 f[18,1] - 0.8360889571029361 f[19,1]
   - 1.34136996472312 f[20,1] - 0.9483640478568586 f[5,8]
   - 1.589889979208189 f[12,10] - 0.0603678537376826 f[10,1]
   - 2.188735872383174 f[20,12] - 1.4753516388254 f[10,14]
   - 2.017160455233836 f[12,13] - 2.239378437988671 f[17,5]
   - 0.784315663434045 f[20,15] - 0.740243523479244 f[1,6]
   - 0.7481456711753731 f[18,6] - 2.03377902921134 f[3,4]
   - 0.8230437802450236 f[11,8] - 0.6044847842444452 f[9,11]
   - 0.9715361449598641 f[15,4] - 1.095401994274967 f[20,5]
   - 0.643954374609501 f[11,4] + 1348 D[1] + 1460 D[2] + 1329 D[4]
   + 1361 D[5] + 1342 D[6] + 1408 D[9] + 1340 D[10] + 1351 D[14]
   + 1309 D[18] + 1496 D[20] - 1.057258596715749 S[3]
   - 1.002745206408238 S[4] - 1.195159521596986 S[6]
   - 1.341675184118341 S[7] - 1.928113421014574 S[8]
   - 1.889728288509547 S[13] - 1.480501016646147 S[15]
   - 1.454759818582581 S[16] - 1.666993043853881 S[17]
   - 1.858754902459854 S[19] + [ - 2.853031456497809 f[2,1] ^2
   - 2.450071216661247 f[3,2] ^2 - 3.764003900970407 f[4,3] ^2
   - 3.966706867960785 f[5,1] ^2 - 2.894705018603185 f[6,5] ^2
   - 3.23537523613868 f[7,3] ^2 - 0.6114600925826914 f[8,4] ^2
   - 2.851561050266274 f[9,6] ^2 - 3.390497521018136 f[10,3] ^2
   - 1.604902991970526 f[11,10] ^2 - 2.213000159174164 f[12,1] ^2
   - 1.917951007043448 f[13,4] ^2 - 3.834091999197486 f[14,5] ^2
   - 1.269111361106863 f[15,8] ^2 - 1.608338107751063 f[16,7] ^2
   - 0.00367915644346306 f[17,3] ^2 - 1.680738138772522 f[18,1] ^2
   - 2.52574442452916 f[19,1] ^2 - 3.739844376746601 f[20,1] ^2
   - 2.139972058990832 f[5,8] ^2 - 0.1719702596184547 f[12,10] ^2
   - 3.332549304732447 f[10,1] ^2 - 2.39198855020263 f[20,12] ^2
   - 2.252152881425487 f[10,14] ^2 - 2.21045371644612 f[12,13] ^2
   - 3.961468322255743 f[17,5] ^2 - 1.773971506379302 f[20,15] ^2
   - 0.0667073530822839 f[1,6] ^2 - 2.758490400756264 f[18,6] ^2
   - 0.7699462496589966 f[3,4] ^2 - 1.812657113354402 f[11,8] ^2
   - 3.689784509156144 f[9,11] ^2 - 0.7736641917852278 f[15,4] ^2
   - 3.741497170688885 f[20,5] ^2 - 0.241710033794714 f[11,4] ^2
   - 7.201894738800593 D[1] ^2 - 7.772150322860706 D[2] ^2
   - 6.699007615345662 D[4] ^2 - 6.732809597812764 D[5] ^2
   - 6.833483466289538 D[6] ^2 - 7.360683566092261 D[9] ^2
   - 7.570547904417624 D[10] ^2 - 7.881916164619189 D[14] ^2
   - 6.751400082959423 D[18] ^2 - 7.413548408947846 D[20] ^2
   - 0.674595011497398 S[3] ^2 - 1.587309055517312 S[4] ^2
   - 0.7979745061760877 S[6] ^2 - 1.188107764775415 S[7] ^2
   - 1.474933965580454 S[8] ^2 - 1.002714408834252 S[13] ^2
   - 1.381551542413399 S[15] ^2 - 1.394626964717602 S[16] ^2
   - 0.0114253798558364 S[17] ^2 - 0.0781310665116288 S[19] ^2 ] / 2 
Subject To
 R0: Q[1] + Q[2] + Q[3] + Q[4] + Q[6] + Q[7] + Q[8] + Q[13] + Q[14] + Q[15]
   + Q[16] + Q[17] + Q[18] + Q[19] + Q[20] <= 1312
 R1: - 123 x[1] + Q[1] <= 0
 R2: - 105 x[2] + Q[2] <= 0
 R3: - 131 x[3] + Q[3] <= 0
 R4: - 114 x[4] + Q[4] <= 0
 R5: - 179 x[6] + Q[6] <= 0
 R6: - 151 x[7] + Q[7] <= 0
 R7: - 150 x[8] + Q[8] <= 0
 R8: - 129 x[13] + Q[13] <= 0
 R9: - 150 x[14] + Q[14] <= 0
 R10: - 196 x[15] + Q[15] <= 0
 R11: - 123 x[16] + Q[16] <= 0
 R12: - 176 x[17] + Q[17] <= 0
 R13: - 101 x[18] + Q[18] <= 0
 R14: - 131 x[19] + Q[19] <= 0
 R15: - 193 x[20] + Q[20] <= 0
 node[3]: - Q[3] + f[3,2] - f[4,3] - f[7,3] - f[10,3] - f[17,3] + f[3,4]
   - S[3] = 0
 node[7]: - Q[7] + f[7,3] - f[16,7] - S[7] = 0
 node[8]: - Q[8] + f[8,4] - f[15,8] - f[5,8] - f[11,8] - S[8] = 0
 node[13]: - Q[13] + f[13,4] - f[12,13] - S[13] = 0
 node[15]: - Q[15] + f[15,8] - f[20,15] + f[15,4] - S[15] = 0
 node[16]: - Q[16] + f[16,7] - S[16] = 0
 node[17]: - Q[17] + f[17,3] + f[17,5] - S[17] = 0
 node[19]: - Q[19] + f[19,1] - S[19] = 0
 node[1]: - Q[1] - f[2,1] - f[5,1] - f[12,1] - f[18,1] - f[19,1] - f[20,1]
   - f[10,1] + f[1,6] + D[1] = 0
 node[2]: - Q[2] + f[2,1] - f[3,2] + D[2] = 0
 node[14]: - Q[14] + f[14,5] - f[10,14] + D[14] = 0
 node[18]: - Q[18] + f[18,1] + f[18,6] + D[18] = 0
 node[20]: - Q[20] + f[20,1] + f[20,12] + f[20,15] + f[20,5] + D[20] = 0
 node[4]: - Q[4] + f[4,3] - f[8,4] - f[13,4] - f[3,4] - f[15,4] - f[11,4]
   + D[4] - S[4] = 0
 node[6]: - Q[6] + f[6,5] - f[9,6] - f[1,6] - f[18,6] + D[6] - S[6] = 0
 node[11]: f[11,10] + f[11,8] - f[9,11] + f[11,4] = 0
 node[12]: f[12,1] + f[12,10] - f[20,12] + f[12,13] = 0
 node[9]: f[9,6] + f[9,11] + D[9] = 0
 node[10]: f[10,3] - f[11,10] - f[12,10] + f[10,1] + f[10,14] + D[10] = 0
 node[5]: f[5,1] - f[6,5] - f[14,5] + f[5,8] - f[17,5] - f[20,5] + D[5]
   = 0
 Cost_Flow[2,1]: - pi[1] + pi[2] + 1.426515728248904 f[2,1] - mu_f[2,1]
   = -2.771029754273204
 Cost_Flow[3,2]: - pi[2] + pi[3] + 1.225035608330624 f[3,2] - mu_f[3,2]
   = -0.9820494399722935
 Cost_Flow[4,3]: - pi[3] + pi[4] + 1.882001950485204 f[4,3] - mu_f[4,3]
   = -2.966583076857058
 Cost_Flow[5,1]: - pi[1] + pi[5] + 1.983353433980393 f[5,1] - mu_f[5,1]
   = -0.5630248207035564
 Cost_Flow[6,5]: - pi[5] + pi[6] + 1.447352509301593 f[6,5] - mu_f[6,5]
   = -2.469756054108095
 Cost_Flow[7,3]: - pi[3] + pi[7] + 1.61768761806934 f[7,3] - mu_f[7,3]
   = -0.4717784612521337
 Cost_Flow[8,4]: - pi[4] + pi[8] + 0.3057300462913457 f[8,4] - mu_f[8,4]
   = -1.215295958583479
 Cost_Flow[9,6]: - pi[6] + pi[9] + 1.425780525133137 f[9,6] - mu_f[9,6]
   = -0.2204199354218327
 Cost_Flow[10,3]: - pi[3] + pi[10] + 1.695248760509068 f[10,3] - mu_f[10,3]
   = -2.574116793594052
 Cost_Flow[11,10]: - pi[10] + pi[11] + 0.8024514959852629 f[11,10]
   - mu_f[11,10] = -2.486394212929567
 Cost_Flow[12,1]: - pi[1] + pi[12] + 1.106500079587082 f[12,1] - mu_f[12,1]
   = -0.4193678956281488
 Cost_Flow[13,4]: - pi[4] + pi[13] + 0.9589755035217242 f[13,4]
   - mu_f[13,4] = -1.581319429671248
 Cost_Flow[14,5]: - pi[5] + pi[14] + 1.917045999598743 f[14,5] - mu_f[14,5]
   = -0.7744244907489192
 Cost_Flow[15,8]: - pi[8] + pi[15] + 0.6345556805534314 f[15,8]
   - mu_f[15,8] = -1.475327100056508
 Cost_Flow[16,7]: - pi[7] + pi[16] + 0.8041690538755317 f[16,7]
   - mu_f[16,7] = -1.659618017847746
 Cost_Flow[17,3]: - pi[3] + pi[17] + 0.00183957822173153 f[17,3]
   - mu_f[17,3] = -0.3187861535962716
 Cost_Flow[18,1]: - pi[1] + pi[18] + 0.8403690693862609 f[18,1]
   - mu_f[18,1] = -2.593126689303397
 Cost_Flow[19,1]: - pi[1] + pi[19] + 1.26287221226458 f[19,1] - mu_f[19,1]
   = -0.8360889571029361
 Cost_Flow[20,1]: - pi[1] + pi[20] + 1.869922188373301 f[20,1] - mu_f[20,1]
   = -1.34136996472312
 Cost_Flow[5,8]: pi[5] - pi[8] + 1.069986029495416 f[5,8] - mu_f[5,8]
   = -0.9483640478568586
 Cost_Flow[12,10]: - pi[10] + pi[12] + 0.0859851298092273 f[12,10]
   - mu_f[12,10] = -1.589889979208189
 Cost_Flow[10,1]: - pi[1] + pi[10] + 1.666274652366224 f[10,1] - mu_f[10,1]
   = -0.0603678537376826
 Cost_Flow[20,12]: - pi[12] + pi[20] + 1.195994275101315 f[20,12]
   - mu_f[20,12] = -2.188735872383174
 Cost_Flow[10,14]: pi[10] - pi[14] + 1.126076440712743 f[10,14]
   - mu_f[10,14] = -1.4753516388254
 Cost_Flow[12,13]: pi[12] - pi[13] + 1.10522685822306 f[12,13]
   - mu_f[12,13] = -2.017160455233836
 Cost_Flow[17,5]: - pi[5] + pi[17] + 1.980734161127872 f[17,5] - mu_f[17,5]
   = -2.239378437988671
 Cost_Flow[20,15]: - pi[15] + pi[20] + 0.886985753189651 f[20,15]
   - mu_f[20,15] = -0.784315663434045
 Cost_Flow[1,6]: pi[1] - pi[6] + 0.033353676541142 f[1,6] - mu_f[1,6]
   = -0.740243523479244
 Cost_Flow[18,6]: - pi[6] + pi[18] + 1.379245200378132 f[18,6] - mu_f[18,6]
   = -0.7481456711753731
 Cost_Flow[3,4]: pi[3] - pi[4] + 0.3849731248294983 f[3,4] - mu_f[3,4]
   = -2.03377902921134
 Cost_Flow[11,8]: - pi[8] + pi[11] + 0.906328556677201 f[11,8] - mu_f[11,8]
   = -0.8230437802450236
 Cost_Flow[9,11]: pi[9] - pi[11] + 1.844892254578072 f[9,11] - mu_f[9,11]
   = -0.6044847842444452
 Cost_Flow[15,4]: - pi[4] + pi[15] + 0.3868320958926139 f[15,4]
   - mu_f[15,4] = -0.9715361449598641
 Cost_Flow[20,5]: - pi[5] + pi[20] + 1.870748585344443 f[20,5] - mu_f[20,5]
   = -1.095401994274967
 Cost_Flow[11,4]: - pi[4] + pi[11] + 0.120855016897357 f[11,4] - mu_f[11,4]
   = -0.643954374609501
 Cost_Demand[1]: pi[1] + 3.600947369400297 D[1] - mu_D[1] = 1348
 Cost_Demand[2]: pi[2] + 3.886075161430353 D[2] - mu_D[2] = 1460
 Cost_Demand[4]: pi[4] + 3.349503807672831 D[4] - mu_D[4] = 1329
 Cost_Demand[5]: pi[5] + 3.366404798906382 D[5] - mu_D[5] = 1361
 Cost_Demand[6]: pi[6] + 3.416741733144769 D[6] - mu_D[6] = 1342
 Cost_Demand[9]: pi[9] + 3.68034178304613 D[9] - mu_D[9] = 1408
 Cost_Demand[10]: pi[10] + 3.785273952208812 D[10] - mu_D[10] = 1340
 Cost_Demand[14]: pi[14] + 3.940958082309594 D[14] - mu_D[14] = 1351
 Cost_Demand[18]: pi[18] + 3.375700041479711 D[18] - mu_D[18] = 1309
 Cost_Demand[20]: pi[20] + 3.706774204473923 D[20] - mu_D[20] = 1496
 Cost_Supply[3]: - pi[3] + 0.337297505748699 S[3] - mu_S[3]
   = -1.057258596715749
 Cost_Supply[4]: - pi[4] + 0.7936545277586561 S[4] - mu_S[4]
   = -1.002745206408238
 Cost_Supply[6]: - pi[6] + 0.3989872530880438 S[6] - mu_S[6]
   = -1.195159521596986
 Cost_Supply[7]: - pi[7] + 0.5940538823877074 S[7] - mu_S[7]
   = -1.341675184118341
 Cost_Supply[8]: - pi[8] + 0.7374669827902269 S[8] - mu_S[8]
   = -1.928113421014574
 Cost_Supply[13]: - pi[13] + 0.5013572044171262 S[13] - mu_S[13]
   = -1.889728288509547
 Cost_Supply[15]: - pi[15] + 0.6907757712066994 S[15] - mu_S[15]
   = -1.480501016646147
 Cost_Supply[16]: - pi[16] + 0.6973134823588011 S[16] - mu_S[16]
   = -1.454759818582581
 Cost_Supply[17]: - pi[17] + 0.00571269 S[17] - mu_S[17]
   = -1.666993043853881
 Cost_Supply[19]: - pi[19] + 0.0390655332558144 S[19] - mu_S[19]
   = -1.858754902459854
Bounds
Binaries
 x[1] x[2] x[3] x[4] x[6] x[7] x[8] x[13] x[14] x[15] x[16] x[17] x[18]
 x[19] x[20]
SOS
 s0:  S1 :: f[2,1]:1 mu_f[2,1]:2
 s1:  S1 :: f[3,2]:1 mu_f[3,2]:2
 s2:  S1 :: f[4,3]:1 mu_f[4,3]:2
 s3:  S1 :: f[5,1]:1 mu_f[5,1]:2
 s4:  S1 :: f[6,5]:1 mu_f[6,5]:2
 s5:  S1 :: f[7,3]:1 mu_f[7,3]:2
 s6:  S1 :: f[8,4]:1 mu_f[8,4]:2
 s7:  S1 :: f[9,6]:1 mu_f[9,6]:2
 s8:  S1 :: f[10,3]:1 mu_f[10,3]:2
 s9:  S1 :: f[11,10]:1 mu_f[11,10]:2
 s10:  S1 :: f[12,1]:1 mu_f[12,1]:2
 s11:  S1 :: f[13,4]:1 mu_f[13,4]:2
 s12:  S1 :: f[14,5]:1 mu_f[14,5]:2
 s13:  S1 :: f[15,8]:1 mu_f[15,8]:2
 s14:  S1 :: f[16,7]:1 mu_f[16,7]:2
 s15:  S1 :: f[17,3]:1 mu_f[17,3]:2
 s16:  S1 :: f[18,1]:1 mu_f[18,1]:2
 s17:  S1 :: f[19,1]:1 mu_f[19,1]:2
 s18:  S1 :: f[20,1]:1 mu_f[20,1]:2
 s19:  S1 :: f[5,8]:1 mu_f[5,8]:2
 s20:  S1 :: f[12,10]:1 mu_f[12,10]:2
 s21:  S1 :: f[10,1]:1 mu_f[10,1]:2
 s22:  S1 :: f[20,12]:1 mu_f[20,12]:2
 s23:  S1 :: f[10,14]:1 mu_f[10,14]:2
 s24:  S1 :: f[12,13]:1 mu_f[12,13]:2
 s25:  S1 :: f[17,5]:1 mu_f[17,5]:2
 s26:  S1 :: f[20,15]:1 mu_f[20,15]:2
 s27:  S1 :: f[1,6]:1 mu_f[1,6]:2
 s28:  S1 :: f[18,6]:1 mu_f[18,6]:2
 s29:  S1 :: f[3,4]:1 mu_f[3,4]:2
 s30:  S1 :: f[11,8]:1 mu_f[11,8]:2
 s31:  S1 :: f[9,11]:1 mu_f[9,11]:2
 s32:  S1 :: f[15,4]:1 mu_f[15,4]:2
 s33:  S1 :: f[20,5]:1 mu_f[20,5]:2
 s34:  S1 :: f[11,4]:1 mu_f[11,4]:2
 s35:  S1 :: D[1]:1 mu_D[1]:2
 s36:  S1 :: D[2]:1 mu_D[2]:2
 s37:  S1 :: D[4]:1 mu_D[4]:2
 s38:  S1 :: D[5]:1 mu_D[5]:2
 s39:  S1 :: D[6]:1 mu_D[6]:2
 s40:  S1 :: D[9]:1 mu_D[9]:2
 s41:  S1 :: D[10]:1 mu_D[10]:2
 s42:  S1 :: D[14]:1 mu_D[14]:2
 s43:  S1 :: D[18]:1 mu_D[18]:2
 s44:  S1 :: D[20]:1 mu_D[20]:2
 s45:  S1 :: S[3]:1 mu_S[3]:2
 s46:  S1 :: S[4]:1 mu_S[4]:2
 s47:  S1 :: S[6]:1 mu_S[6]:2
 s48:  S1 :: S[7]:1 mu_S[7]:2
 s49:  S1 :: S[8]:1 mu_S[8]:2
 s50:  S1 :: S[13]:1 mu_S[13]:2
 s51:  S1 :: S[15]:1 mu_S[15]:2
 s52:  S1 :: S[16]:1 mu_S[16]:2
 s53:  S1 :: S[17]:1 mu_S[17]:2
 s54:  S1 :: S[19]:1 mu_S[19]:2
End
