Medium-instances_NetworkFacilityLocation/2023-03-27_20hr-25min-09sec/Nodes20_Arcs35_LocNodes15/Formulation-2Instance-2.log

Gurobi 9.5.2 (win64) logging started Mon Mar 27 20:26:24 2023

Set parameter LogFile to value "2023-03-27_20hr-25min-09sec/Nodes20_Arcs35_LocNodes15/Formulation-2Instance-2.log"
Set parameter TimeLimit to value 600
Set parameter IntFeasTol to value 1e-09
Set parameter DualReductions to value 0
Set parameter NonConvex to value 2
Gurobi Optimizer version 9.5.2 build v9.5.2rc0 (win64)
Thread count: 4 physical cores, 8 logical processors, using up to 8 threads
Optimize a model with 91 rows, 160 columns and 350 nonzeros
Model fingerprint: 0xf03f6e2c
Model has 55 quadratic objective terms
Model has 55 SOS constraints
Variable types: 145 continuous, 15 integer (15 binary)
Coefficient statistics:
  Matrix range     [2e-03, 2e+02]
  Objective range  [6e-02, 1e+03]
  QObjective range [4e-03, 8e+00]
  Bounds range     [1e+00, 1e+00]
  RHS range        [6e-02, 1e+03]
Presolve removed 6 rows and 10 columns
Presolve time: 0.00s
Presolved: 85 rows, 150 columns, 330 nonzeros
Presolved model has 49 SOS constraint(s)
Presolved model has 49 quadratic objective terms
Variable types: 135 continuous, 15 integer (15 binary)

Root relaxation: objective 4.892540e+05, 190 iterations, 0.00 seconds (0.00 work units)

    Nodes    |    Current Node    |     Objective Bounds      |     Work
 Expl Unexpl |  Obj  Depth IntInf | Incumbent    BestBd   Gap | It/Node Time

     0     0 489253.974    0    6          - 489253.974      -     -    0s
H    0     0                    487514.04962 489253.974  0.36%     -    0s
     0     0 489002.370    0    6 487514.050 489002.370  0.31%     -    0s
     0     0 487810.028    0    8 487514.050 487810.028  0.06%     -    0s
     0     0 487810.028    0    7 487514.050 487810.028  0.06%     -    0s

Cutting planes:
  Cover: 2
  Implied bound: 1
  Clique: 1
  Flow cover: 1
  Relax-and-lift: 1

Explored 1 nodes (330 simplex iterations) in 0.05 seconds (0.01 work units)
Thread count was 8 (of 8 available processors)

Solution count 1: 487514 

Optimal solution found (tolerance 1.00e-04)
Best objective 4.875140496202e+05, best bound 4.875606173089e+05, gap 0.0096%

User-callback calls 259, time in user-callback 0.00 sec
